Version identifier: 22.1.0.0 | 2022-03-09 | 1a383f8ce
CPXPARAM_Read_DataCheck                          1
CPXPARAM_TimeLimit                               600
Tried aggregator 4 times.
MIP Presolve eliminated 171672 rows and 13364 columns.
MIP Presolve modified 1679 coefficients.
Aggregator did 161679 substitutions.
Reduced MIP has 14110 rows, 164069 columns, and 342613 nonzeros.
Reduced MIP has 164023 binaries, 46 generals, 0 SOSs, and 0 indicators.
Presolve time = 2.58 sec. (2565.50 ticks)
Tried aggregator 1 time.
Detecting symmetries...
Reduced MIP has 14110 rows, 164069 columns, and 342613 nonzeros.
Reduced MIP has 164023 binaries, 46 generals, 0 SOSs, and 0 indicators.
Presolve time = 0.49 sec. (279.77 ticks)
Probing fixed 69 vars, tightened 0 bounds.
Probing time = 0.98 sec. (85.61 ticks)
Clique table members: 331328.
MIP emphasis: balance optimality and feasibility.
MIP search method: dynamic search.
Parallel mode: deterministic, using up to 8 threads.
Root relaxation solution time = 3.41 sec. (1207.12 ticks)

        Nodes                                         Cuts/
   Node  Left     Objective  IInf  Best Integer    Best Bound    ItCnt     Gap

      0     0       46.3952 10490                     46.3952       28         
      0     0       75.0000  1068                    Cuts: 30    22380         
      0     0       75.0000  1232                    Cuts: 94    40148         
      0     0       75.0000  1364                    Cuts: 62    57850         
Heuristic still looking.

Clique cuts applied:  3
Zero-half cuts applied:  103
Lift and project cuts applied:  5
Gomory fractional cuts applied:  30

Root node processing (before b&c):
  Real time             =  600.07 sec. (264944.78 ticks)
Parallel b&c, 8 threads:
  Real time             =    0.00 sec. (0.00 ticks)
  Sync time (average)   =    0.00 sec.
  Wait time (average)   =    0.00 sec.
                          ------------
Total (root+branch&cut) =  600.07 sec. (264944.78 ticks)
